N = 10;

m = [
  [0 0 6 0 5 7 8 2 4 0],
  [6 0 10 1 7 5 7 7 6 1],
  [9 6 0 3 7 7 10 8 5 5],
  [5 3 5 0 1 2 4 4 3 2],
  [7 9 10 8 0 1 5 2 5 6],
  [0 2 5 7 8 0 9 8 8 10],
  [6 6 5 4 3 5 0 10 0 0],
  [4 1 2 1 1 2 0 0 1 3],
  [10 4 8 5 3 0 0 0 0 3],
  [8 10 5 10 1 8 1 2 1 0]
];
